90 4005
1 2 132
1 3 84
1 4 146
1 5 14
1 6 252
1 7 45
1 8 93
1 9 8
1 10 168
1 11 133
1 12 27
1 13 84
1 14 162
1 15 29
1 16 210
1 17 81
1 18 121
1 19 194
1 20 7
1 21 155
1 22 23
1 23 238
1 24 139
1 25 52
1 26 116
1 27 47
1 28 253
1 29 113
1 30 129
1 31 215
1 32 83
1 33 249
1 34 60
1 35 48
1 36 93
1 37 93
1 38 149
1 39 108
1 40 53
1 41 145
1 42 115
1 43 100
1 44 252
1 45 96
1 46 210
1 47 156
1 48 181
1 49 80
1 50 88
1 51 17
1 52 234
1 53 106
1 54 225
1 55 5
1 56 5
1 57 190
1 58 69
1 59 214
1 60 256
1 61 62
1 62 217
1 63 105
1 64 96
1 65 63
1 66 179
1 67 199
1 68 214
1 69 168
1 70 212
1 71 248
1 72 184
1 73 143
1 74 21
1 75 260
1 76 68
1 77 83
1 78 192
1 79 16
1 80 198
1 81 34
1 82 165
1 83 230
1 84 70
1 85 247
1 86 183
1 87 100
1 88 93
1 89 212
1 90 191
2 3 11
2 4 104
2 5 226
2 6 142
2 7 64
2 8 19
2 9 9
2 10 195
2 11 175
2 12 70
2 13 249
2 14 232
2 15 129
2 16 19
2 17 241
2 18 118
2 19 44
2 20 24
2 21 92
2 22 10
2 23 53
2 24 138
2 25 64
2 26 72
2 27 63
2 28 257
2 29 153
2 30 0
2 31 6
2 32 214
2 33 141
2 34 165
2 35 211
2 36 227
2 37 234
2 38 105
2 39 252
2 40 38
2 41 8
2 42 38
2 43 104
2 44 118
2 45 207
2 46 76
2 47 223
2 48 107
2 49 187
2 50 54
2 51 87
2 52 170
2 53 231
2 54 175
2 55 259
2 56 18
2 57 168
2 58 176
2 59 74
2 60 109
2 61 72
2 62 55
2 63 151
2 64 103
2 65 81
2 66 91
2 67 62
2 68 214
2 69 201
2 70 265
2 71 0
2 72 144
2 73 212
2 74 229
2 75 75
2 76 125
2 77 246
2 78 62
2 79 117
2 80 205
2 81 95
2 82 187
2 83 220
2 84 9
2 85 49
2 86 112
2 87 258
2 88 99
2 89 78
2 90 141
3 4 100
3 5 176
3 6 97
3 7 70
3 8 49
3 9 37
3 10 45
3 11 159
3 12 217
3 13 247
3 14 20
3 15 136
3 16 190
3 17 186
3 18 110
3 19 19
3 20 20
3 21 160
3 22 61
3 23 124
3 24 251
3 25 160
3 26 256
3 27 201
3 28 27
3 29 236
3 30 51
3 31 18
3 32 200
3 33 182
3 34 128
3 35 64
3 36 220
3 37 171
3 38 93
3 39 50
3 40 25
3 41 110
3 42 150
3 43 238
3 44 223
3 45 69
3 46 53
3 47 181
3 48 135
3 49 159
3 50 131
3 51 84
3 52 209
3 53 14
3 54 113
3 55 180
3 56 142
3 57 231
3 58 234
3 59 161
3 60 36
3 61 231
3 62 15
3 63 227
3 64 62
3 65 232
3 66 183
3 67 80
3 68 12
3 69 147
3 70 0
3 71 201
3 72 257
3 73 69
3 74 124
3 75 48
3 76 82
3 77 32
3 78 237
3 79 104
3 80 260
3 81 195
3 82 241
3 83 118
3 84 114
3 85 98
3 86 79
3 87 50
3 88 53
3 89 165
3 90 210
4 5 169
4 6 33
4 7 222
4 8 135
4 9 142
4 10 54
4 11 180
4 12 112
4 13 245
4 14 241
4 15 243
4 16 106
4 17 9
4 18 57
4 19 85
4 20 86
4 21 83
4 22 192
4 23 121
4 24 107
4 25 184
4 26 9
4 27 143
4 28 266
4 29 129
4 30 94
4 31 38
4 32 6
4 33 26
4 34 126
4 35 192
4 36 152
4 37 121
4 38 160
4 39 162
4 40 129
4 41 149
4 42 238
4 43 233
4 44 96
4 45 225
4 46 23
4 47 216
4 48 246
4 49 219
4 50 66
4 51 90
4 52 191
4 53 126
4 54 32
4 55 92
4 56 29
4 57 44
4 58 79
4 59 182
4 60 149
4 61 195
4 62 165
4 63 233
4 64 71
4 65 45
4 66 142
4 67 231
4 68 183
4 69 93
4 70 182
4 71 13
4 72 58
4 73 72
4 74 240
4 75 44
4 76 228
4 77 212
4 78 189
4 79 106
4 80 189
4 81 152
4 82 251
4 83 18
4 84 45
4 85 202
4 86 11
4 87 106
4 88 251
4 89 262
4 90 268
5 6 15
5 7 104
5 8 214
5 9 81
5 10 139
5 11 225
5 12 264
5 13 168
5 14 205
5 15 159
5 16 105
5 17 26
5 18 259
5 19 6
5 20 110
5 21 60
5 22 98
5 23 149
5 24 52
5 25 74
5 26 105
5 27 261
5 28 29
5 29 234
5 30 147
5 31 116
5 32 44
5 33 103
5 34 58
5 35 131
5 36 92
5 37 205
5 38 4
5 39 72
5 40 4
5 41 76
5 42 122
5 43 190
5 44 0
5 45 107
5 46 73
5 47 149
5 48 29
5 49 131
5 50 25
5 51 186
5 52 95
5 53 170
5 54 29
5 55 3
5 56 24
5 57 237
5 58 96
5 59 57
5 60 125
5 61 137
5 62 17
5 63 44
5 64 233
5 65 39
5 66 74
5 67 54
5 68 196
5 69 163
5 70 221
5 71 212
5 72 244
5 73 71
5 74 12
5 75 46
5 76 32
5 77 138
5 78 249
5 79 199
5 80 164
5 81 260
5 82 211
5 83 100
5 84 90
5 85 2
5 86 245
5 87 180
5 88 45
5 89 175
5 90 68
6 7 47
6 8 172
6 9 140
6 10 230
6 11 160
6 12 111
6 13 263
6 14 34
6 15 232
6 16 186
6 17 228
6 18 116
6 19 266
6 20 268
6 21 84
6 22 6
6 23 188
6 24 211
6 25 121
6 26 251
6 27 169
6 28 129
6 29 153
6 30 260
6 31 200
6 32 199
6 33 197
6 34 200
6 35 218
6 36 203
6 37 23
6 38 116
6 39 193
6 40 189
6 41 55
6 42 23
6 43 150
6 44 30
6 45 211
6 46 188
6 47 178
6 48 168
6 49 37
6 50 91
6 51 152
6 52 76
6 53 39
6 54 259
6 55 172
6 56 65
6 57 88
6 58 208
6 59 35
6 60 24
6 61 231
6 62 120
6 63 252
6 64 102
6 65 218
6 66 73
6 67 139
6 68 265
6 69 144
6 70 8
6 71 27
6 72 21
6 73 106
6 74 251
6 75 73
6 76 205
6 77 60
6 78 152
6 79 260
6 80 113
6 81 256
6 82 226
6 83 157
6 84 118
6 85 129
6 86 90
6 87 194
6 88 163
6 89 34
6 90 249
7 8 154
7 9 8
7 10 215
7 11 61
7 12 74
7 13 170
7 14 235
7 15 2
7 16 116
7 17 170
7 18 218
7 19 30
7 20 50
7 21 181
7 22 192
7 23 189
7 24 170
7 25 228
7 26 153
7 27 86
7 28 13
7 29 227
7 30 14
7 31 163
7 32 143
7 33 189
7 34 266
7 35 92
7 36 263
7 37 178
7 38 68
7 39 80
7 40 55
7 41 37
7 42 166
7 43 174
7 44 63
7 45 137
7 46 79
7 47 190
7 48 209
7 49 254
7 50 206
7 51 184
7 52 51
7 53 7
7 54 222
7 55 22
7 56 255
7 57 45
7 58 243
7 59 267
7 60 173
7 61 38
7 62 149
7 63 156
7 64 116
7 65 104
7 66 75
7 67 166
7 68 223
7 69 44
7 70 33
7 71 215
7 72 132
7 73 199
7 74 227
7 75 152
7 76 197
7 77 159
7 78 16
7 79 13
7 80 15
7 81 34
7 82 43
7 83 69
7 84 173
7 85 109
7 86 81
7 87 101
7 88 168
7 89 113
7 90 172
8 9 31
8 10 203
8 11 70
8 12 126
8 13 12
8 14 269
8 15 151
8 16 29
8 17 176
8 18 108
8 19 146
8 20 235
8 21 144
8 22 218
8 23 235
8 24 163
8 25 156
8 26 177
8 27 22
8 28 44
8 29 182
8 30 96
8 31 131
8 32 132
8 33 139
8 34 185
8 35 228
8 36 202
8 37 150
8 38 152
8 39 267
8 40 115
8 41 6
8 42 140
8 43 77
8 44 215
8 45 6
8 46 228
8 47 79
8 48 18
8 49 228
8 50 41
8 51 114
8 52 58
8 53 151
8 54 68
8 55 49
8 56 189
8 57 39
8 58 203
8 59 79
8 60 39
8 61 10
8 62 81
8 63 73
8 64 84
8 65 161
8 66 26
8 67 20
8 68 245
8 69 36
8 70 121
8 71 211
8 72 144
8 73 64
8 74 147
8 75 264
8 76 89
8 77 58
8 78 87
8 79 191
8 80 107
8 81 192
8 82 132
8 83 89
8 84 42
8 85 143
8 86 257
8 87 101
8 88 179
8 89 210
8 90 245
9 10 36
9 11 56
9 12 103
9 13 176
9 14 208
9 15 166
9 16 36
9 17 157
9 18 150
9 19 73
9 20 116
9 21 234
9 22 99
9 23 172
9 24 244
9 25 158
9 26 71
9 27 256
9 28 163
9 29 45
9 30 99
9 31 210
9 32 213
9 33 238
9 34 139
9 35 135
9 36 223
9 37 0
9 38 84
9 39 186
9 40 192
9 41 249
9 42 247
9 43 260
9 44 17
9 45 53
9 46 0
9 47 153
9 48 4
9 49 266
9 50 52
9 51 180
9 52 257
9 53 105
9 54 98
9 55 26
9 56 4
9 57 164
9 58 172
9 59 211
9 60 203
9 61 111
9 62 145
9 63 257
9 64 240
9 65 31
9 66 121
9 67 204
9 68 180
9 69 79
9 70 86
9 71 167
9 72 49
9 73 182
9 74 107
9 75 15
9 76 159
9 77 110
9 78 236
9 79 240
9 80 107
9 81 3
9 82 65
9 83 263
9 84 195
9 85 100
9 86 107
9 87 241
9 88 70
9 89 62
9 90 94
10 11 178
10 12 242
10 13 37
10 14 134
10 15 168
10 16 227
10 17 99
10 18 32
10 19 67
10 20 257
10 21 175
10 22 160
10 23 246
10 24 103
10 25 144
10 26 107
10 27 105
10 28 218
10 29 117
10 30 9
10 31 129
10 32 194
10 33 47
10 34 144
10 35 212
10 36 212
10 37 27
10 38 214
10 39 118
10 40 41
10 41 171
10 42 7
10 43 35
10 44 50
10 45 35
10 46 206
10 47 206
10 48 54
10 49 66
10 50 186
10 51 20
10 52 112
10 53 209
10 54 240
10 55 53
10 56 105
10 57 48
10 58 87
10 59 147
10 60 56
10 61 156
10 62 212
10 63 237
10 64 61
10 65 201
10 66 59
10 67 201
10 68 74
10 69 56
10 70 15
10 71 128
10 72 84
10 73 18
10 74 136
10 75 127
10 76 184
10 77 141
10 78 93
10 79 260
10 80 230
10 81 198
10 82 210
10 83 264
10 84 261
10 85 258
10 86 226
10 87 248
10 88 162
10 89 81
10 90 96
11 12 159
11 13 22
11 14 192
11 15 61
11 16 26
11 17 74
11 18 77
11 19 85
11 20 25
11 21 139
11 22 49
11 23 18
11 24 191
11 25 87
11 26 84
11 27 215
11 28 240
11 29 202
11 30 222
11 31 35
11 32 123
11 33 129
11 34 65
11 35 72
11 36 31
11 37 89
11 38 49
11 39 240
11 40 64
11 41 79
11 42 121
11 43 224
11 44 66
11 45 256
11 46 216
11 47 46
11 48 232
11 49 144
11 50 61
11 51 47
11 52 36
11 53 173
11 54 98
11 55 137
11 56 175
11 57 33
11 58 48
11 59 160
11 60 257
11 61 226
11 62 20
11 63 216
11 64 138
11 65 89
11 66 145
11 67 76
11 68 103
11 69 74
11 70 180
11 71 113
11 72 198
11 73 13
11 74 247
11 75 194
11 76 16
11 77 269
11 78 242
11 79 86
11 80 101
11 81 111
11 82 236
11 83 148
11 84 106
11 85 26
11 86 235
11 87 162
11 88 124
11 89 226
11 90 14
12 13 196
12 14 146
12 15 131
12 16 220
12 17 240
12 18 91
12 19 159
12 20 228
12 21 255
12 22 82
12 23 80
12 24 184
12 25 123
12 26 190
12 27 164
12 28 37
12 29 213
12 30 119
12 31 261
12 32 242
12 33 16
12 34 81
12 35 100
12 36 30
12 37 204
12 38 149
12 39 165
12 40 185
12 41 12
12 42 121
12 43 212
12 44 192
12 45 44
12 46 91
12 47 96
12 48 118
12 49 189
12 50 46
12 51 69
12 52 50
12 53 129
12 54 96
12 55 55
12 56 253
12 57 178
12 58 162
12 59 115
12 60 101
12 61 241
12 62 11
12 63 91
12 64 203
12 65 17
12 66 20
12 67 61
12 68 186
12 69 31
12 70 108
12 71 71
12 72 46
12 73 94
12 74 37
12 75 161
12 76 142
12 77 128
12 78 190
12 79 126
12 80 76
12 81 70
12 82 4
12 83 245
12 84 177
12 85 239
12 86 146
12 87 136
12 88 39
12 89 58
12 90 5
13 14 80
13 15 207
13 16 178
13 17 21
13 18 185
13 19 188
13 20 242
13 21 247
13 22 260
13 23 164
13 24 70
13 25 77
13 26 213
13 27 154
13 28 139
13 29 201
13 30 263
13 31 22
13 32 261
13 33 230
13 34 58
13 35 41
13 36 89
13 37 248
13 38 73
13 39 69
13 40 89
13 41 216
13 42 8
13 43 149
13 44 6
13 45 142
13 46 250
13 47 204
13 48 37
13 49 134
13 50 104
13 51 53
13 52 240
13 53 82
13 54 85
13 55 225
13 56 151
13 57 187
13 58 269
13 59 49
13 60 74
13 61 78
13 62 104
13 63 112
13 64 138
13 65 152
13 66 242
13 67 38
13 68 3
13 69 234
13 70 124
13 71 68
13 72 200
13 73 31
13 74 81
13 75 17
13 76 206
13 77 28
13 78 71
13 79 116
13 80 61
13 81 246
13 82 54
13 83 109
13 84 210
13 85 177
13 86 129
13 87 152
13 88 155
13 89 93
13 90 124
14 15 39
14 16 138
14 17 165
14 18 165
14 19 218
14 20 193
14 21 149
14 22 206
14 23 124
14 24 267
14 25 116
14 26 64
14 27 252
14 28 234
14 29 10
14 30 156
14 31 130
14 32 167
14 33 135
14 34 15
14 35 1
14 36 237
14 37 236
14 38 36
14 39 9
14 40 84
14 41 75
14 42 174
14 43 253
14 44 222
14 45 180
14 46 43
14 47 172
14 48 18
14 49 193
14 50 224
14 51 21
14 52 260
14 53 79
14 54 37
14 55 77
14 56 244
14 57 62
14 58 77
14 59 97
14 60 212
14 61 153
14 62 264
14 63 267
14 64 147
14 65 126
14 66 6
14 67 3
14 68 179
14 69 198
14 70 160
14 71 160
14 72 165
14 73 256
14 74 253
14 75 120
14 76 44
14 77 244
14 78 122
14 79 246
14 80 79
14 81 231
14 82 162
14 83 145
14 84 208
14 85 88
14 86 34
14 87 47
14 88 201
14 89 6
14 90 92
15 16 213
15 17 228
15 18 2
15 19 22
15 20 111
15 21 160
15 22 227
15 23 64
15 24 241
15 25 65
15 26 263
15 27 211
15 28 35
15 29 202
15 30 42
15 31 260
15 32 112
15 33 80
15 34 32
15 35 214
15 36 239
15 37 136
15 38 130
15 39 135
15 40 109
15 41 127
15 42 106
15 43 49
15 44 164
15 45 259
15 46 37
15 47 65
15 48 259
15 49 118
15 50 241
15 51 250
15 52 139
15 53 127
15 54 73
15 55 77
15 56 102
15 57 74
15 58 17
15 59 52
15 60 152
15 61 261
15 62 73
15 63 125
15 64 145
15 65 248
15 66 189
15 67 223
15 68 62
15 69 59
15 70 263
15 71 228
15 72 269
15 73 67
15 74 255
15 75 102
15 76 126
15 77 54
15 78 165
15 79 198
15 80 202
15 81 135
15 82 98
15 83 71
15 84 18
15 85 47
15 86 249
15 87 190
15 88 53
15 89 50
15 90 172
16 17 214
16 18 268
16 19 163
16 20 15
16 21 250
16 22 233
16 23 23
16 24 51
16 25 214
16 26 128
16 27 128
16 28 111
16 29 174
16 30 40
16 31 99
16 32 192
16 33 33
16 34 236
16 35 194
16 36 54
16 37 232
16 38 120
16 39 161
16 40 84
16 41 197
16 42 222
16 43 239
16 44 41
16 45 131
16 46 21
16 47 262
16 48 80
16 49 218
16 50 153
16 51 170
16 52 112
16 53 259
16 54 152
16 55 115
16 56 94
16 57 43
16 58 226
16 59 88
16 60 46
16 61 139
16 62 215
16 63 16
16 64 198
16 65 12
16 66 20
16 67 172
16 68 234
16 69 208
16 70 233
16 71 24
16 72 89
16 73 234
16 74 12
16 75 232
16 76 5
16 77 13
16 78 75
16 79 49
16 80 85
16 81 167
16 82 224
16 83 209
16 84 55
16 85 103
16 86 186
16 87 162
16 88 45
16 89 130
16 90 58
17 18 148
17 19 201
17 20 211
17 21 6
17 22 71
17 23 82
17 24 235
17 25 54
17 26 189
17 27 192
17 28 178
17 29 205
17 30 160
17 31 158
17 32 75
17 33 226
17 34 233
17 35 229
17 36 71
17 37 52
17 38 85
17 39 77
17 40 240
17 41 208
17 42 85
17 43 12
17 44 207
17 45 110
17 46 73
17 47 68
17 48 31
17 49 150
17 50 225
17 51 73
17 52 159
17 53 32
17 54 43
17 55 65
17 56 66
17 57 227
17 58 16
17 59 46
17 60 8
17 61 88
17 62 220
17 63 137
17 64 80
17 65 164
17 66 102
17 67 7
17 68 73
17 69 15
17 70 193
17 71 210
17 72 83
17 73 128
17 74 16
17 75 42
17 76 123
17 77 91
17 78 191
17 79 60
17 80 209
17 81 39
17 82 153
17 83 234
17 84 167
17 85 253
17 86 62
17 87 197
17 88 135
17 89 178
17 90 171
18 19 200
18 20 143
18 21 148
18 22 155
18 23 2
18 24 7
18 25 208
18 26 113
18 27 127
18 28 84
18 29 53
18 30 94
18 31 6
18 32 108
18 33 123
18 34 114
18 35 120
18 36 216
18 37 90
18 38 0
18 39 187
18 40 53
18 41 147
18 42 267
18 43 264
18 44 156
18 45 40
18 46 62
18 47 229
18 48 140
18 49 43
18 50 191
18 51 227
18 52 12
18 53 92
18 54 21
18 55 128
18 56 33
18 57 131
18 58 64
18 59 233
18 60 165
18 61 135
18 62 102
18 63 152
18 64 116
18 65 133
18 66 24
18 67 166
18 68 143
18 69 121
18 70 101
18 71 86
18 72 49
18 73 51
18 74 171
18 75 124
18 76 84
18 77 182
18 78 102
18 79 77
18 80 116
18 81 168
18 82 15
18 83 164
18 84 193
18 85 239
18 86 45
18 87 263
18 88 200
18 89 5
18 90 127
19 20 60
19 21 252
19 22 183
19 23 99
19 24 50
19 25 60
19 26 190
19 27 28
19 28 73
19 29 175
19 30 208
19 31 231
19 32 126
19 33 169
19 34 193
19 35 104
19 36 67
19 37 142
19 38 48
19 39 22
19 40 225
19 41 220
19 42 164
19 43 118
19 44 185
19 45 169
19 46 6
19 47 235
19 48 171
19 49 214
19 50 259
19 51 258
19 52 236
19 53 128
19 54 52
19 55 198
19 56 157
19 57 148
19 58 96
19 59 38
19 60 24
19 61 91
19 62 223
19 63 223
19 64 15
19 65 17
19 66 131
19 67 7
19 68 71
19 69 44
19 70 84
19 71 59
19 72 57
19 73 72
19 74 81
19 75 37
19 76 265
19 77 110
19 78 150
19 79 250
19 80 65
19 81 17
19 82 152
19 83 259
19 84 262
19 85 34
19 86 149
19 87 153
19 88 101
19 89 128
19 90 63
20 21 165
20 22 127
20 23 215
20 24 172
20 25 64
20 26 247
20 27 229
20 28 171
20 29 194
20 30 183
20 31 158
20 32 16
20 33 168
20 34 65
20 35 196
20 36 9
20 37 224
20 38 223
20 39 266
20 40 160
20 41 220
20 42 235
20 43 100
20 44 139
20 45 18
20 46 183
20 47 192
20 48 150
20 49 242
20 50 131
20 51 199
20 52 79
20 53 254
20 54 131
20 55 227
20 56 263
20 57 125
20 58 21
20 59 209
20 60 129
20 61 27
20 62 162
20 63 42
20 64 36
20 65 206
20 66 76
20 67 14
20 68 144
20 69 127
20 70 64
20 71 218
20 72 137
20 73 241
20 74 238
20 75 267
20 76 54
20 77 53
20 78 140
20 79 71
20 80 150
20 81 50
20 82 51
20 83 170
20 84 135
20 85 80
20 86 249
20 87 12
20 88 58
20 89 263
20 90 70
21 22 201
21 23 179
21 24 181
21 25 154
21 26 80
21 27 84
21 28 241
21 29 92
21 30 208
21 31 116
21 32 3
21 33 192
21 34 181
21 35 90
21 36 23
21 37 159
21 38 120
21 39 259
21 40 144
21 41 125
21 42 187
21 43 9
21 44 63
21 45 18
21 46 221
21 47 144
21 48 156
21 49 219
21 50 8
21 51 51
21 52 266
21 53 100
21 54 250
21 55 34
21 56 248
21 57 195
21 58 85
21 59 183
21 60 43
21 61 251
21 62 156
21 63 53
21 64 221
21 65 74
21 66 152
21 67 201
21 68 265
21 69 102
21 70 117
21 71 259
21 72 269
21 73 18
21 74 79
21 75 254
21 76 3
21 77 110
21 78 155
21 79 240
21 80 117
21 81 31
21 82 50
21 83 120
21 84 156
21 85 190
21 86 223
21 87 233
21 88 58
21 89 196
21 90 45
22 23 78
22 24 220
22 25 255
22 26 260
22 27 144
22 28 179
22 29 239
22 30 98
22 31 101
22 32 248
22 33 205
22 34 81
22 35 47
22 36 121
22 37 12
22 38 157
22 39 216
22 40 250
22 41 27
22 42 117
22 43 112
22 44 103
22 45 195
22 46 4
22 47 121
22 48 170
22 49 121
22 50 82
22 51 177
22 52 186
22 53 129
22 54 130
22 55 114
22 56 123
22 57 108
22 58 226
22 59 126
22 60 41
22 61 266
22 62 90
22 63 84
22 64 170
22 65 154
22 66 149
22 67 133
22 68 227
22 69 228
22 70 92
22 71 11
22 72 107
22 73 267
22 74 111
22 75 78
22 76 144
22 77 179
22 78 16
22 79 67
22 80 264
22 81 2
22 82 53
22 83 111
22 84 95
22 85 15
22 86 251
22 87 188
22 88 225
22 89 155
22 90 233
23 24 35
23 25 128
23 26 8
23 27 185
23 28 259
23 29 55
23 30 46
23 31 195
23 32 45
23 33 44
23 34 222
23 35 264
23 36 146
23 37 210
23 38 257
23 39 240
23 40 101
23 41 139
23 42 203
23 43 208
23 44 79
23 45 224
23 46 226
23 47 156
23 48 251
23 49 128
23 50 100
23 51 233
23 52 78
23 53 65
23 54 252
23 55 263
23 56 255
23 57 222
23 58 190
23 59 208
23 60 219
23 61 266
23 62 16
23 63 256
23 64 27
23 65 169
23 66 244
23 67 134
23 68 121
23 69 167
23 70 3
23 71 170
23 72 231
23 73 46
23 74 196
23 75 36
23 76 89
23 77 28
23 78 49
23 79 123
23 80 188
23 81 141
23 82 268
23 83 11
23 84 120
23 85 27
23 86 75
23 87 208
23 88 46
23 89 221
23 90 221
24 25 118
24 26 51
24 27 264
24 28 135
24 29 81
24 30 140
24 31 182
24 32 18
24 33 263
24 34 143
24 35 123
24 36 235
24 37 232
24 38 194
24 39 150
24 40 82
24 41 126
24 42 90
24 43 66
24 44 236
24 45 244
24 46 8
24 47 235
24 48 223
24 49 100
24 50 113
24 51 83
24 52 193
24 53 19
24 54 151
24 55 238
24 56 59
24 57 227
24 58 145
24 59 79
24 60 213
24 61 33
24 62 57
24 63 30
24 64 229
24 65 56
24 66 53
24 67 264
24 68 175
24 69 95
24 70 111
24 71 259
24 72 190
24 73 243
24 74 178
24 75 74
24 76 36
24 77 218
24 78 148
24 79 67
24 80 40
24 81 97
24 82 140
24 83 65
24 84 153
24 85 50
24 86 114
24 87 134
24 88 52
24 89 128
24 90 9
25 26 244
25 27 254
25 28 28
25 29 106
25 30 206
25 31 80
25 32 238
25 33 186
25 34 225
25 35 13
25 36 237
25 37 37
25 38 205
25 39 11
25 40 246
25 41 169
25 42 227
25 43 118
25 44 66
25 45 184
25 46 52
25 47 152
25 48 249
25 49 174
25 50 186
25 51 68
25 52 94
25 53 147
25 54 262
25 55 118
25 56 229
25 57 239
25 58 114
25 59 55
25 60 85
25 61 223
25 62 221
25 63 223
25 64 131
25 65 120
25 66 38
25 67 77
25 68 46
25 69 222
25 70 171
25 71 79
25 72 128
25 73 176
25 74 197
25 75 15
25 76 255
25 77 17
25 78 239
25 79 62
25 80 3
25 81 235
25 82 164
25 83 159
25 84 35
25 85 79
25 86 105
25 87 91
25 88 127
25 89 234
25 90 249
26 27 136
26 28 76
26 29 176
26 30 15
26 31 257
26 32 63
26 33 224
26 34 248
26 35 50
26 36 167
26 37 151
26 38 184
26 39 20
26 40 78
26 41 259
26 42 99
26 43 129
26 44 177
26 45 76
26 46 87
26 47 212
26 48 167
26 49 222
26 50 5
26 51 114
26 52 9
26 53 182
26 54 98
26 55 207
26 56 7
26 57 178
26 58 191
26 59 100
26 60 148
26 61 47
26 62 142
26 63 127
26 64 23
26 65 198
26 66 19
26 67 16
26 68 205
26 69 100
26 70 106
26 71 123
26 72 68
26 73 152
26 74 95
26 75 146
26 76 228
26 77 86
26 78 219
26 79 234
26 80 214
26 81 237
26 82 12
26 83 266
26 84 54
26 85 114
26 86 263
26 87 2
26 88 269
26 89 228
26 90 123
27 28 165
27 29 54
27 30 22
27 31 71
27 32 149
27 33 118
27 34 17
27 35 72
27 36 171
27 37 180
27 38 139
27 39 178
27 40 220
27 41 205
27 42 249
27 43 164
27 44 269
27 45 192
27 46 205
27 47 237
27 48 155
27 49 14
27 50 11
27 51 258
27 52 105
27 53 40
27 54 85
27 55 78
27 56 165
27 57 42
27 58 235
27 59 81
27 60 69
27 61 179
27 62 157
27 63 230
27 64 152
27 65 41
27 66 142
27 67 36
27 68 252
27 69 29
27 70 8
27 71 239
27 72 104
27 73 45
27 74 257
27 75 166
27 76 151
27 77 244
27 78 60
27 79 64
27 80 80
27 81 33
27 82 240
27 83 86
27 84 138
27 85 60
27 86 50
27 87 84
27 88 72
27 89 88
27 90 154
28 29 29
28 30 56
28 31 229
28 32 158
28 33 263
28 34 231
28 35 18
28 36 237
28 37 12
28 38 188
28 39 243
28 40 146
28 41 240
28 42 129
28 43 212
28 44 210
28 45 203
28 46 71
28 47 230
28 48 101
28 49 241
28 50 36
28 51 82
28 52 17
28 53 126
28 54 27
28 55 247
28 56 145
28 57 230
28 58 236
28 59 74
28 60 188
28 61 27
28 62 209
28 63 195
28 64 43
28 65 180
28 66 134
28 67 4
28 68 235
28 69 236
28 70 82
28 71 25
28 72 6
28 73 37
28 74 187
28 75 137
28 76 174
28 77 1
28 78 158
28 79 238
28 80 201
28 81 13
28 82 183
28 83 268
28 84 209
28 85 63
28 86 76
28 87 250
28 88 49
28 89 167
28 90 58
29 30 197
29 31 78
29 32 142
29 33 216
29 34 185
29 35 58
29 36 145
29 37 75
29 38 166
29 39 121
29 40 60
29 41 64
29 42 184
29 43 130
29 44 263
29 45 125
29 46 93
29 47 212
29 48 124
29 49 39
29 50 239
29 51 108
29 52 128
29 53 82
29 54 74
29 55 149
29 56 180
29 57 148
29 58 69
29 59 101
29 60 119
29 61 47
29 62 47
29 63 148
29 64 110
29 65 142
29 66 207
29 67 123
29 68 144
29 69 153
29 70 44
29 71 192
29 72 47
29 73 76
29 74 16
29 75 172
29 76 171
29 77 29
29 78 31
29 79 224
29 80 160
29 81 8
29 82 153
29 83 228
29 84 213
29 85 37
29 86 220
29 87 258
29 88 35
29 89 5
29 90 14
30 31 152
30 32 254
30 33 94
30 34 89
30 35 129
30 36 173
30 37 208
30 38 149
30 39 242
30 40 259
30 41 258
30 42 252
30 43 57
30 44 192
30 45 72
30 46 196
30 47 234
30 48 118
30 49 68
30 50 148
30 51 48
30 52 234
30 53 243
30 54 1
30 55 124
30 56 118
30 57 39
30 58 90
30 59 230
30 60 1
30 61 176
30 62 124
30 63 161
30 64 8
30 65 105
30 66 60
30 67 46
30 68 173
30 69 179
30 70 165
30 71 244
30 72 243
30 73 13
30 74 213
30 75 208
30 76 48
30 77 264
30 78 180
30 79 142
30 80 51
30 81 53
30 82 183
30 83 39
30 84 27
30 85 89
30 86 35
30 87 61
30 88 183
30 89 161
30 90 178
31 32 125
31 33 96
31 34 80
31 35 97
31 36 16
31 37 219
31 38 115
31 39 22
31 40 254
31 41 67
31 42 10
31 43 136
31 44 157
31 45 40
31 46 99
31 47 117
31 48 180
31 49 249
31 50 83
31 51 216
31 52 85
31 53 129
31 54 69
31 55 32
31 56 215
31 57 46
31 58 173
31 59 168
31 60 227
31 61 69
31 62 39
31 63 92
31 64 36
31 65 102
31 66 77
31 67 205
31 68 137
31 69 195
31 70 23
31 71 105
31 72 175
31 73 245
31 74 111
31 75 74
31 76 166
31 77 113
31 78 245
31 79 155
31 80 202
31 81 193
31 82 201
31 83 82
31 84 175
31 85 47
31 86 218
31 87 89
31 88 125
31 89 198
31 90 157
32 33 33
32 34 162
32 35 235
32 36 269
32 37 114
32 38 161
32 39 218
32 40 139
32 41 52
32 42 212
32 43 90
32 44 60
32 45 174
32 46 135
32 47 151
32 48 47
32 49 8
32 50 263
32 51 72
32 52 194
32 53 194
32 54 33
32 55 109
32 56 135
32 57 132
32 58 143
32 59 78
32 60 189
32 61 90
32 62 194
32 63 227
32 64 242
32 65 73
32 66 260
32 67 122
32 68 213
32 69 121
32 70 118
32 71 72
32 72 22
32 73 215
32 74 189
32 75 49
32 76 111
32 77 9
32 78 6
32 79 126
32 80 32
32 81 71
32 82 45
32 83 112
32 84 227
32 85 13
32 86 195
32 87 103
32 88 207
32 89 229
32 90 215
33 34 206
33 35 10
33 36 128
33 37 68
33 38 146
33 39 120
33 40 87
33 41 54
33 42 77
33 43 220
33 44 34
33 45 91
33 46 235
33 47 20
33 48 140
33 49 68
33 50 19
33 51 161
33 52 46
33 53 261
33 54 173
33 55 69
33 56 169
33 57 3
33 58 31
33 59 252
33 60 210
33 61 174
33 62 253
33 63 54
33 64 199
33 65 9
33 66 31
33 67 141
33 68 170
33 69 268
33 70 245
33 71 252
33 72 20
33 73 220
33 74 268
33 75 40
33 76 223
33 77 4
33 78 203
33 79 34
33 80 61
33 81 190
33 82 113
33 83 2
33 84 143
33 85 152
33 86 166
33 87 208
33 88 13
33 89 254
33 90 17
34 35 42
34 36 127
34 37 164
34 38 133
34 39 248
34 40 30
34 41 208
34 42 122
34 43 108
34 44 36
34 45 261
34 46 154
34 47 88
34 48 110
34 49 203
34 50 60
34 51 212
34 52 235
34 53 138
34 54 161
34 55 162
34 56 145
34 57 221
34 58 39
34 59 73
34 60 207
34 61 76
34 62 52
34 63 227
34 64 181
34 65 220
34 66 110
34 67 140
34 68 109
34 69 240
34 70 16
34 71 63
34 72 12
34 73 87
34 74 242
34 75 32
34 76 122
34 77 155
34 78 263
34 79 251
34 80 138
34 81 11
34 82 6
34 83 249
34 84 22
34 85 41
34 86 173
34 87 199
34 88 235
34 89 84
34 90 96
35 36 3
35 37 110
35 38 199
35 39 6
35 40 200
35 41 123
35 42 140
35 43 208
35 44 96
35 45 237
35 46 268
35 47 91
35 48 194
35 49 109
35 50 92
35 51 144
35 52 256
35 53 150
35 54 161
35 55 8
35 56 252
35 57 6
35 58 224
35 59 183
35 60 99
35 61 160
35 62 151
35 63 149
35 64 236
35 65 58
35 66 70
35 67 130
35 68 15
35 69 20
35 70 56
35 71 227
35 72 7
35 73 183
35 74 32
35 75 29
35 76 74
35 77 69
35 78 202
35 79 263
35 80 101
35 81 218
35 82 176
35 83 59
35 84 114
35 85 243
35 86 30
35 87 69
35 88 81
35 89 144
35 90 150
36 37 106
36 38 33
36 39 198
36 40 206
36 41 233
36 42 91
36 43 5
36 44 235
36 45 198
36 46 100
36 47 259
36 48 207
36 49 27
36 50 210
36 51 182
36 52 254
36 53 139
36 54 43
36 55 135
36 56 44
36 57 123
36 58 58
36 59 143
36 60 133
36 61 120
36 62 263
36 63 48
36 64 160
36 65 180
36 66 89
36 67 129
36 68 66
36 69 243
36 70 71
36 71 91
36 72 235
36 73 77
36 74 194
36 75 138
36 76 131
36 77 116
36 78 250
36 79 265
36 80 60
36 81 260
36 82 73
36 83 233
36 84 264
36 85 69
36 86 187
36 87 219
36 88 122
36 89 77
36 90 171
37 38 163
37 39 169
37 40 16
37 41 221
37 42 127
37 43 252
37 44 141
37 45 25
37 46 122
37 47 166
37 48 226
37 49 28
37 50 55
37 51 107
37 52 28
37 53 18
37 54 252
37 55 133
37 56 103
37 57 107
37 58 12
37 59 210
37 60 130
37 61 162
37 62 23
37 63 243
37 64 259
37 65 107
37 66 120
37 67 69
37 68 114
37 69 264
37 70 129
37 71 205
37 72 251
37 73 15
37 74 51
37 75 185
37 76 6
37 77 2
37 78 133
37 79 69
37 80 203
37 81 245
37 82 162
37 83 267
37 84 0
37 85 168
37 86 187
37 87 61
37 88 1
37 89 111
37 90 136
38 39 51
38 40 25
38 41 241
38 42 87
38 43 166
38 44 46
38 45 132
38 46 225
38 47 48
38 48 78
38 49 159
38 50 86
38 51 268
38 52 101
38 53 122
38 54 263
38 55 152
38 56 160
38 57 123
38 58 141
38 59 156
38 60 192
38 61 152
38 62 254
38 63 142
38 64 245
38 65 98
38 66 34
38 67 230
38 68 201
38 69 188
38 70 201
38 71 86
38 72 64
38 73 250
38 74 251
38 75 190
38 76 6
38 77 9
38 78 189
38 79 54
38 80 16
38 81 136
38 82 67
38 83 52
38 84 6
38 85 94
38 86 166
38 87 34
38 88 56
38 89 126
38 90 229
39 40 224
39 41 200
39 42 164
39 43 84
39 44 0
39 45 33
39 46 79
39 47 139
39 48 23
39 49 64
39 50 6
39 51 100
39 52 91
39 53 238
39 54 160
39 55 223
39 56 129
39 57 95
39 58 186
39 59 30
39 60 104
39 61 85
39 62 252
39 63 238
39 64 76
39 65 14
39 66 140
39 67 144
39 68 263
39 69 225
39 70 190
39 71 121
39 72 153
39 73 128
39 74 70
39 75 235
39 76 179
39 77 103
39 78 17
39 79 137
39 80 5
39 81 20
39 82 204
39 83 124
39 84 224
39 85 139
39 86 6
39 87 230
39 88 40
39 89 46
39 90 80
40 41 147
40 42 191
40 43 129
40 44 36
40 45 213
40 46 94
40 47 122
40 48 144
40 49 179
40 50 244
40 51 180
40 52 163
40 53 127
40 54 189
40 55 3
40 56 137
40 57 233
40 58 50
40 59 77
40 60 161
40 61 8
40 62 53
40 63 38
40 64 153
40 65 45
40 66 124
40 67 122
40 68 118
40 69 227
40 70 220
40 71 192
40 72 260
40 73 24
40 74 223
40 75 158
40 76 173
40 77 144
40 78 124
40 79 40
40 80 184
40 81 91
40 82 264
40 83 157
40 84 135
40 85 109
40 86 193
40 87 261
40 88 78
40 89 115
40 90 202
41 42 111
41 43 236
41 44 234
41 45 125
41 46 6
41 47 91
41 48 39
41 49 45
41 50 109
41 51 28
41 52 219
41 53 100
41 54 240
41 55 19
41 56 153
41 57 255
41 58 194
41 59 268
41 60 89
41 61 48
41 62 27
41 63 225
41 64 260
41 65 19
41 66 98
41 67 170
41 68 141
41 69 203
41 70 40
41 71 228
41 72 41
41 73 142
41 74 9
41 75 155
41 76 58
41 77 158
41 78 230
41 79 12
41 80 28
41 81 116
41 82 92
41 83 13
41 84 214
41 85 95
41 86 169
41 87 139
41 88 119
41 89 162
41 90 119
42 43 23
42 44 114
42 45 263
42 46 42
42 47 206
42 48 158
42 49 71
42 50 47
42 51 71
42 52 13
42 53 74
42 54 150
42 55 219
42 56 98
42 57 9
42 58 176
42 59 195
42 60 162
42 61 163
42 62 40
42 63 263
42 64 133
42 65 110
42 66 25
42 67 66
42 68 185
42 69 31
42 70 115
42 71 61
42 72 187
42 73 14
42 74 97
42 75 31
42 76 84
42 77 211
42 78 154
42 79 207
42 80 75
42 81 144
42 82 33
42 83 133
42 84 52
42 85 1
42 86 141
42 87 33
42 88 232
42 89 221
42 90 26
43 44 20
43 45 156
43 46 216
43 47 217
43 48 20
43 49 213
43 50 99
43 51 184
43 52 256
43 53 184
43 54 235
43 55 154
43 56 73
43 57 110
43 58 79
43 59 226
43 60 83
43 61 225
43 62 145
43 63 160
43 64 172
43 65 16
43 66 15
43 67 79
43 68 259
43 69 167
43 70 32
43 71 214
43 72 248
43 73 198
43 74 11
43 75 259
43 76 169
43 77 111
43 78 174
43 79 233
43 80 185
43 81 193
43 82 30
43 83 35
43 84 68
43 85 36
43 86 81
43 87 205
43 88 220
43 89 60
43 90 19
44 45 86
44 46 58
44 47 255
44 48 210
44 49 157
44 50 177
44 51 205
44 52 2
44 53 27
44 54 165
44 55 153
44 56 43
44 57 118
44 58 83
44 59 98
44 60 148
44 61 129
44 62 157
44 63 124
44 64 104
44 65 180
44 66 150
44 67 146
44 68 152
44 69 173
44 70 153
44 71 221
44 72 119
44 73 41
44 74 72
44 75 33
44 76 223
44 77 120
44 78 121
44 79 241
44 80 112
44 81 205
44 82 233
44 83 168
44 84 254
44 85 44
44 86 268
44 87 173
44 88 131
44 89 167
44 90 163
45 46 193
45 47 153
45 48 76
45 49 227
45 50 140
45 51 111
45 52 55
45 53 243
45 54 168
45 55 75
45 56 201
45 57 185
45 58 199
45 59 179
45 60 149
45 61 30
45 62 207
45 63 253
45 64 111
45 65 126
45 66 20
45 67 174
45 68 53
45 69 65
45 70 150
45 71 135
45 72 108
45 73 76
45 74 28
45 75 159
45 76 204
45 77 152
45 78 199
45 79 140
45 80 167
45 81 54
45 82 89
45 83 140
45 84 249
45 85 61
45 86 214
45 87 269
45 88 173
45 89 35
45 90 18
46 47 7
46 48 260
46 49 199
46 50 127
46 51 198
46 52 252
46 53 207
46 54 239
46 55 268
46 56 139
46 57 64
46 58 220
46 59 116
46 60 2
46 61 55
46 62 260
46 63 190
46 64 33
46 65 167
46 66 192
46 67 131
46 68 5
46 69 73
46 70 34
46 71 246
46 72 141
46 73 105
46 74 22
46 75 182
46 76 268
46 77 92
46 78 32
46 79 268
46 80 137
46 81 160
46 82 16
46 83 238
46 84 241
46 85 158
46 86 83
46 87 12
46 88 10
46 89 246
46 90 133
47 48 156
47 49 80
47 50 232
47 51 35
47 52 153
47 53 43
47 54 166
47 55 255
47 56 95
47 57 52
47 58 100
47 59 98
47 60 35
47 61 9
47 62 96
47 63 239
47 64 206
47 65 17
47 66 58
47 67 65
47 68 189
47 69 79
47 70 43
47 71 257
47 72 21
47 73 151
47 74 182
47 75 84
47 76 109
47 77 188
47 78 131
47 79 249
47 80 130
47 81 11
47 82 230
47 83 199
47 84 101
47 85 216
47 86 22
47 87 4
47 88 148
47 89 233
47 90 1
48 49 145
48 50 244
48 51 119
48 52 253
48 53 112
48 54 137
48 55 227
48 56 79
48 57 268
48 58 84
48 59 152
48 60 117
48 61 2
48 62 175
48 63 161
48 64 111
48 65 118
48 66 81
48 67 104
48 68 227
48 69 154
48 70 173
48 71 161
48 72 181
48 73 141
48 74 174
48 75 6
48 76 44
48 77 158
48 78 138
48 79 188
48 80 218
48 81 108
48 82 108
48 83 232
48 84 15
48 85 237
48 86 75
48 87 180
48 88 147
48 89 262
48 90 238
49 50 201
49 51 250
49 52 35
49 53 4
49 54 12
49 55 23
49 56 200
49 57 137
49 58 70
49 59 3
49 60 155
49 61 179
49 62 105
49 63 187
49 64 100
49 65 3
49 66 235
49 67 124
49 68 194
49 69 47
49 70 219
49 71 47
49 72 167
49 73 53
49 74 168
49 75 165
49 76 75
49 77 100
49 78 52
49 79 237
49 80 187
49 81 149
49 82 150
49 83 65
49 84 256
49 85 148
49 86 205
49 87 126
49 88 107
49 89 81
49 90 190
50 51 72
50 52 60
50 53 198
50 54 70
50 55 176
50 56 169
50 57 178
50 58 109
50 59 121
50 60 224
50 61 186
50 62 255
50 63 97
50 64 56
50 65 148
50 66 8
50 67 152
50 68 216
50 69 120
50 70 218
50 71 15
50 72 254
50 73 199
50 74 171
50 75 253
50 76 173
50 77 108
50 78 9
50 79 203
50 80 71
50 81 249
50 82 211
50 83 43
50 84 66
50 85 242
50 86 61
50 87 32
50 88 1
50 89 37
50 90 81
51 52 269
51 53 3
51 54 39
51 55 39
51 56 115
51 57 178
51 58 131
51 59 187
51 60 154
51 61 147
51 62 74
51 63 11
51 64 260
51 65 121
51 66 85
51 67 20
51 68 165
51 69 38
51 70 223
51 71 55
51 72 254
51 73 95
51 74 264
51 75 263
51 76 55
51 77 118
51 78 67
51 79 46
51 80 80
51 81 33
51 82 98
51 83 49
51 84 197
51 85 140
51 86 194
51 87 21
51 88 235
51 89 128
51 90 184
52 53 138
52 54 113
52 55 129
52 56 38
52 57 50
52 58 89
52 59 206
52 60 122
52 61 182
52 62 161
52 63 24
52 64 1
52 65 193
52 66 82
52 67 54
52 68 156
52 69 263
52 70 59
52 71 111
52 72 235
52 73 242
52 74 67
52 75 142
52 76 236
52 77 128
52 78 20
52 79 141
52 80 87
52 81 102
52 82 135
52 83 25
52 84 240
52 85 120
52 86 82
52 87 207
52 88 185
52 89 243
52 90 98
53 54 83
53 55 63
53 56 215
53 57 204
53 58 202
53 59 219
53 60 258
53 61 269
53 62 258
53 63 112
53 64 105
53 65 187
53 66 240
53 67 252
53 68 97
53 69 121
53 70 261
53 71 113
53 72 248
53 73 70
53 74 261
53 75 128
53 76 213
53 77 186
53 78 141
53 79 137
53 80 181
53 81 104
53 82 210
53 83 107
53 84 89
53 85 263
53 86 66
53 87 101
53 88 215
53 89 84
53 90 16
54 55 183
54 56 264
54 57 191
54 58 218
54 59 15
54 60 181
54 61 57
54 62 7
54 63 34
54 64 248
54 65 96
54 66 118
54 67 155
54 68 120
54 69 250
54 70 250
54 71 169
54 72 164
54 73 262
54 74 177
54 75 220
54 76 90
54 77 170
54 78 200
54 79 4
54 80 225
54 81 167
54 82 201
54 83 46
54 84 223
54 85 45
54 86 269
54 87 127
54 88 248
54 89 183
54 90 34
55 56 13
55 57 266
55 58 54
55 59 65
55 60 269
55 61 228
55 62 44
55 63 15
55 64 231
55 65 47
55 66 23
55 67 227
55 68 260
55 69 11
55 70 78
55 71 211
55 72 35
55 73 89
55 74 187
55 75 62
55 76 201
55 77 76
55 78 171
55 79 124
55 80 210
55 81 267
55 82 167
55 83 51
55 84 89
55 85 174
55 86 160
55 87 191
55 88 112
55 89 146
55 90 2
56 57 138
56 58 7
56 59 64
56 60 7
56 61 189
56 62 11
56 63 22
56 64 11
56 65 146
56 66 57
56 67 248
56 68 104
56 69 236
56 70 224
56 71 75
56 72 194
56 73 146
56 74 46
56 75 182
56 76 114
56 77 195
56 78 161
56 79 122
56 80 130
56 81 205
56 82 89
56 83 164
56 84 245
56 85 52
56 86 73
56 87 202
56 88 4
56 89 197
56 90 187
57 58 222
57 59 85
57 60 188
57 61 224
57 62 200
57 63 22
57 64 230
57 65 165
57 66 137
57 67 215
57 68 199
57 69 245
57 70 63
57 71 165
57 72 175
57 73 46
57 74 178
57 75 16
57 76 265
57 77 38
57 78 20
57 79 146
57 80 16
57 81 241
57 82 139
57 83 39
57 84 186
57 85 242
57 86 184
57 87 231
57 88 185
57 89 228
57 90 177
58 59 183
58 60 234
58 61 81
58 62 262
58 63 88
58 64 189
58 65 161
58 66 114
58 67 28
58 68 202
58 69 166
58 70 119
58 71 59
58 72 85
58 73 228
58 74 194
58 75 212
58 76 99
58 77 88
58 78 151
58 79 156
58 80 163
58 81 203
58 82 22
58 83 127
58 84 255
58 85 99
58 86 269
58 87 247
58 88 262
58 89 90
58 90 166
59 60 268
59 61 30
59 62 139
59 63 91
59 64 158
59 65 161
59 66 98
59 67 30
59 68 245
59 69 34
59 70 104
59 71 183
59 72 19
59 73 114
59 74 245
59 75 1
59 76 85
59 77 199
59 78 134
59 79 71
59 80 238
59 81 32
59 82 32
59 83 216
59 84 188
59 85 160
59 86 238
59 87 33
59 88 22
59 89 248
59 90 204
60 61 106
60 62 40
60 63 38
60 64 77
60 65 119
60 66 217
60 67 39
60 68 94
60 69 66
60 70 252
60 71 82
60 72 33
60 73 32
60 74 109
60 75 95
60 76 99
60 77 154
60 78 152
60 79 188
60 80 87
60 81 223
60 82 129
60 83 117
60 84 63
60 85 235
60 86 244
60 87 148
60 88 15
60 89 122
60 90 105
61 62 134
61 63 130
61 64 79
61 65 174
61 66 42
61 67 145
61 68 23
61 69 196
61 70 267
61 71 208
61 72 220
61 73 157
61 74 256
61 75 21
61 76 16
61 77 188
61 78 51
61 79 60
61 80 32
61 81 162
61 82 111
61 83 53
61 84 215
61 85 216
61 86 249
61 87 242
61 88 222
61 89 41
61 90 124
62 63 203
62 64 207
62 65 203
62 66 101
62 67 98
62 68 151
62 69 223
62 70 103
62 71 243
62 72 172
62 73 128
62 74 62
62 75 54
62 76 236
62 77 173
62 78 160
62 79 227
62 80 207
62 81 209
62 82 156
62 83 152
62 84 193
62 85 166
62 86 166
62 87 46
62 88 215
62 89 13
62 90 259
63 64 200
63 65 57
63 66 201
63 67 196
63 68 25
63 69 258
63 70 109
63 71 17
63 72 18
63 73 268
63 74 85
63 75 258
63 76 34
63 77 161
63 78 95
63 79 265
63 80 23
63 81 5
63 82 149
63 83 60
63 84 114
63 85 266
63 86 130
63 87 157
63 88 221
63 89 12
63 90 6
64 65 250
64 66 269
64 67 152
64 68 208
64 69 164
64 70 89
64 71 259
64 72 77
64 73 203
64 74 20
64 75 132
64 76 25
64 77 144
64 78 160
64 79 88
64 80 102
64 81 122
64 82 31
64 83 242
64 84 263
64 85 171
64 86 81
64 87 161
64 88 220
64 89 75
64 90 105
65 66 37
65 67 6
65 68 140
65 69 84
65 70 125
65 71 69
65 72 236
65 73 40
65 74 86
65 75 59
65 76 120
65 77 169
65 78 242
65 79 262
65 80 76
65 81 248
65 82 3
65 83 25
65 84 77
65 85 229
65 86 267
65 87 202
65 88 84
65 89 116
65 90 13
66 67 209
66 68 28
66 69 64
66 70 179
66 71 169
66 72 97
66 73 188
66 74 68
66 75 198
66 76 174
66 77 27
66 78 224
66 79 211
66 80 147
66 81 183
66 82 0
66 83 244
66 84 8
66 85 242
66 86 47
66 87 81
66 88 196
66 89 15
66 90 150
67 68 210
67 69 22
67 70 100
67 71 34
67 72 127
67 73 241
67 74 13
67 75 257
67 76 21
67 77 13
67 78 69
67 79 51
67 80 85
67 81 108
67 82 256
67 83 43
67 84 139
67 85 45
67 86 262
67 87 171
67 88 13
67 89 179
67 90 180
68 69 198
68 70 72
68 71 10
68 72 93
68 73 4
68 74 108
68 75 154
68 76 196
68 77 161
68 78 126
68 79 104
68 80 182
68 81 202
68 82 154
68 83 20
68 84 244
68 85 227
68 86 225
68 87 232
68 88 123
68 89 97
68 90 103
69 70 34
69 71 248
69 72 93
69 73 108
69 74 224
69 75 7
69 76 55
69 77 14
69 78 33
69 79 4
69 80 58
69 81 46
69 82 164
69 83 242
69 84 89
69 85 44
69 86 6
69 87 87
69 88 129
69 89 87
69 90 252
70 71 56
70 72 37
70 73 225
70 74 57
70 75 260
70 76 29
70 77 261
70 78 200
70 79 26
70 80 145
70 81 164
70 82 167
70 83 42
70 84 129
70 85 31
70 86 89
70 87 48
70 88 42
70 89 84
70 90 253
71 72 146
71 73 192
71 74 127
71 75 105
71 76 150
71 77 244
71 78 244
71 79 51
71 80 14
71 81 131
71 82 220
71 83 218
71 84 263
71 85 126
71 86 65
71 87 133
71 88 147
71 89 199
71 90 194
72 73 67
72 74 156
72 75 12
72 76 153
72 77 206
72 78 260
72 79 121
72 80 60
72 81 226
72 82 94
72 83 185
72 84 50
72 85 68
72 86 253
72 87 24
72 88 256
72 89 73
72 90 165
73 74 209
73 75 239
73 76 112
73 77 211
73 78 130
73 79 58
73 80 64
73 81 25
73 82 267
73 83 181
73 84 48
73 85 125
73 86 134
73 87 37
73 88 114
73 89 119
73 90 112
74 75 168
74 76 38
74 77 237
74 78 18
74 79 269
74 80 132
74 81 75
74 82 18
74 83 142
74 84 229
74 85 131
74 86 154
74 87 61
74 88 71
74 89 253
74 90 55
75 76 214
75 77 212
75 78 60
75 79 35
75 80 70
75 81 56
75 82 259
75 83 214
75 84 91
75 85 161
75 86 173
75 87 196
75 88 112
75 89 103
75 90 78
76 77 57
76 78 175
76 79 71
76 80 123
76 81 51
76 82 2
76 83 260
76 84 137
76 85 69
76 86 86
76 87 210
76 88 258
76 89 76
76 90 32
77 78 230
77 79 269
77 80 231
77 81 201
77 82 39
77 83 75
77 84 61
77 85 64
77 86 0
77 87 227
77 88 215
77 89 255
77 90 55
78 79 101
78 80 255
78 81 135
78 82 254
78 83 266
78 84 75
78 85 24
78 86 101
78 87 156
78 88 15
78 89 200
78 90 47
79 80 211
79 81 114
79 82 19
79 83 193
79 84 28
79 85 144
79 86 223
79 87 87
79 88 183
79 89 250
79 90 135
80 81 214
80 82 227
80 83 52
80 84 68
80 85 200
80 86 0
80 87 112
80 88 113
80 89 224
80 90 29
81 82 232
81 83 125
81 84 249
81 85 46
81 86 9
81 87 211
81 88 166
81 89 249
81 90 187
82 83 138
82 84 189
82 85 153
82 86 91
82 87 37
82 88 105
82 89 53
82 90 158
83 84 236
83 85 78
83 86 211
83 87 113
83 88 203
83 89 151
83 90 4
84 85 174
84 86 101
84 87 141
84 88 44
84 89 211
84 90 32
85 86 262
85 87 200
85 88 260
85 89 260
85 90 92
86 87 195
86 88 152
86 89 203
86 90 91
87 88 112
87 89 42
87 90 142
88 89 18
88 90 228
89 90 134
